NAME          
ROWS
 N  OBJ
 L  c1
 L  c2
COLUMNS
    MARKER    'MARKER'                 'INTORG'
    x[1]      c1        473
    x[1]      c2        185
    x[1]      OBJ       -971
    x[2]      c1        546
    x[2]      c2        867
    x[2]      OBJ       -678
    x[3]      c1        374
    x[3]      c2        982
    x[3]      OBJ       -29
    x[4]      c1        118
    x[4]      c2        602
    x[4]      OBJ       -662
    x[5]      c1        833
    x[5]      c2        482
    x[5]      OBJ       -63
    x[6]      c1        122
    x[6]      c2        41
    x[6]      OBJ       -755
    x[7]      c1        482
    x[7]      c2        377
    x[7]      OBJ       -692
    x[8]      c1        276
    x[8]      c2        357
    x[8]      OBJ       -708
    x[9]      c1        410
    x[9]      c2        243
    x[9]      OBJ       -782
    x[10]     c1        517
    x[10]     c2        273
    x[10]     OBJ       -130
    x[11]     c1        698
    x[11]     c2        475
    x[11]     OBJ       -921
    x[12]     c1        219
    x[12]     c2        112
    x[12]     OBJ       -163
    x[13]     c1        213
    x[13]     c2        697
    x[13]     OBJ       -924
    x[14]     c1        873
    x[14]     c2        206
    x[14]     OBJ       -93
    x[15]     c1        854
    x[15]     c2        789
    x[15]     OBJ       -116
RHS
    rhs       c1        3504
    rhs       c2        3344
RANGES
BOUNDS
 BV bounds    x[1]
 BV bounds    x[2]
 BV bounds    x[3]
 BV bounds    x[4]
 BV bounds    x[5]
 BV bounds    x[6]
 BV bounds    x[7]
 BV bounds    x[8]
 BV bounds    x[9]
 BV bounds    x[10]
 BV bounds    x[11]
 BV bounds    x[12]
 BV bounds    x[13]
 BV bounds    x[14]
 BV bounds    x[15]
ENDATA
